outputs/case_209.model.txt
is_bank = True
consumer_data_collected_and_verified = False
product_suitability_confirmed = False
serious_violation_flag = False
client_acceptance_rules_established = False
client_review_procedures_established = False
client_data_collected_and_verified = False
investment_ability_evaluated = False
clear_risk_disclosure_to_client = False
product_suitability_rules_established = False
risk_level_classification_established = False
monitoring_mechanism_established = False
non_professional_investor_compliance = False
product_suitability_ensured = False
control_procedures_established = True
violate_disclosure_rules = False
is_bill_finance_company = False
is_securities_finance_company = False
is_futures_broker = False
is_trust_industry = False
is_securities_central_depository = False
is_fisheries_credit_department = False
is_securities_firm = False
is_postal_financial_institution = False
is_insurance_company = False
is_securities_investment_advisor = False
is_other_designated_financial_institution = False
is_national_agricultural_bank = False
is_designated_non_financial_business_or_personnel = False
is_credit_card_company = False
is_agricultural_credit_department = False
is_securities_investment_trust = False
is_financing_lease_or_virtual_asset_service_provider = False
is_credit_cooperative = False
is_trust_company = False
financial_institution_defined = True
internal_control_executed = True
violate_consumer_data_rules = False
serious_violation = False
internal_control_compliance = True
internal_control_established = True
risk_assessment_report_updated = True
client_understanding_rules_established = False
recommendation_false_or_hidden = False
consumer_protection_compliance = False
violation_advertising = False
internal_control_execution_confirmed = True
violate_compensation_rules = False
false_or_hidden_recommendation = False
training_held_regularly = True
violate_advertising_rules = False
penalty_heavy = False
violation_disclosure = False
violation_consumer_data = False
violation_compensation = False
consumer_data_understood = False
inspection_evaded_or_obstructed = False
other_designated_matters_complied = True
dedicated_personnel_assigned = True
penalty = False
audit_procedures_established = True
inspection_cooperation = True